c User generated cnf file
p cnf 11 28
4 1 -4 0 
3 -3 11 0 
10 8 -10 0 
6 6 -2 0 
4 -4 7 0 
11 -5 1 0 
10 -6 1 0 
11 3 -6 0 
1 -1 10 0 
7 -9 10 0 
2 -10 8 0 
5 8 -5 0 
2 -3 2 0 
11 -7 1 0 
3 7 -3 0 
1 9 -2 0 
1 -2 3 0 
9 -2 1 0 
4 6 -11 0 
11 -8 4 0 
3 -10 5 0 
9 9 -10 0 
7 2 -9 0 
9 -11 9 0 
5 -10 7 0 
6 2 -6 0 
6 4 -8 0 
11 1 -5 0 
